
Gurobi 6.5.2 (linux64) logging started Wed Mar 15 12:47:26 2017


Gurobi 6.5.2 (linux64) logging started Wed Mar 15 12:47:26 2017

Optimize a model with 101 rows, 418 columns and 839 nonzeros
Coefficient statistics:
  Matrix range    [1e+00, 2e+00]
  Objective range [1e+00, 1e+02]
  Bounds range    [1e+00, 1e+00]
  RHS range       [1e+00, 1e+00]
Presolve removed 50 rows and 48 columns
Presolve time: 0.02s
Presolved: 51 rows, 370 columns, 741 nonzeros
Variable types: 0 continuous, 370 integer (370 binary)

Root relaxation: objective 1.124000e+03, 71 iterations, 0.00 seconds

    Nodes    |    Current Node    |     Objective Bounds      |     Work
 Expl Unexpl |  Obj  Depth IntInf | Incumbent    BestBd   Gap | It/Node Time

     0     0 1124.00000    0    8          - 1124.00000      -     -    0s
     0     0 1128.14286    0   25          - 1128.14286      -     -    0s
     0     0 1129.33333    0    6          - 1129.33333      -     -    0s
     0     0 1129.60000    0   22          - 1129.60000      -     -    0s
     0     0 1130.50000    0   22          - 1130.50000      -     -    0s
     0     0 1130.66667    0   20          - 1130.66667      -     -    0s
     0     0 1131.00000    0   31          - 1131.00000      -     -    0s
     0     0 1131.00000    0   32          - 1131.00000      -     -    0s
     0     2 1131.00000    0   30          - 1131.00000      -     -    0s
H  376   292                    1193.0000000 1134.00000  4.95%   3.0    0s
H  597   384                    1187.0000000 1135.00000  4.38%   3.3    0s
*  872   445              26    1184.0000000 1138.00000  3.89%   4.0    0s
* 1116   389               9    1163.0000000 1142.33333  1.78%   4.2    0s
* 1538   111              10    1154.0000000 1145.00000  0.78%   4.0    0s

Cutting planes:
  Gomory: 2
  Cover: 2
  MIR: 2
  Zero half: 1
  Lazy constraints: 301

Explored 1857 nodes (6916 simplex iterations) in 0.32 seconds
Thread count was 8 (of 8 available processors)

Optimal solution found (tolerance 1.00e-04)
Best objective 1.154000000000e+03, best bound 1.154000000000e+03, gap 0.0%
